p cnf 12 22
-3 -2 -10 -5 1 -12 7 -11 6 4 -9 0
-2 -7 -3 0
9 -8 -11 -12 0
11 -12 4 10 6 1 -9 -7 -3 2 -5 8 0
5 -4 -10 11 0
-9 1 -12 0
-7 -5 -8 -9 11 0
3 -4 5 -6 -9 -11 0
-1 12 5 6 0
-7 -12 1 0
-12 -5 -10 0
1 -9 0
10 6 -8 -4 0
-1 5 -11 -3 -8 -2 6 0
-9 -6 -8 -10 3 1 4 0
-11 -8 6 1 4 10 -9 3 -5 12 0
6 -9 12 -1 0
9 -2 -1 0
8 -4 6 0
-2 -5 0
7 -5 6 -11 1 -12 -3 0
2 -11 8 1 -7 3 0
